(set-logic HORN)

(declare-datatypes ((Bool_0 0)) (((false_0 ) (true_0 ))))
(declare-datatypes ((Nat_0 0)) (((zero_0 ) (succ_0  (p_0 Nat_0)))))

(declare-fun |diseqNat_0| ( Nat_0 Nat_0 ) Bool)
(declare-fun |minus_0| ( Nat_0 Nat_0 Nat_0 ) Bool)
(declare-fun |lt_0| ( Bool_0 Nat_0 Nat_0 ) Bool)
(declare-fun |mod_0| ( Nat_0 Nat_0 Nat_0 ) Bool)
(declare-fun |diseqBool_0| ( Bool_0 Bool_0 ) Bool)
(declare-fun |go_0| ( Nat_0 Nat_0 Nat_0 Nat_0 ) Bool)
(declare-fun |modstructural_0| ( Nat_0 Nat_0 Nat_0 ) Bool)

(assert
  (forall ( (v_0 Bool_0) (v_1 Bool_0) ) 
    (=>
      (and
        (and true (= v_0 false_0) (= v_1 true_0))
      )
      (diseqBool_0 v_0 v_1)
    )
  )
)
(assert
  (forall ( (v_0 Bool_0) (v_1 Bool_0) ) 
    (=>
      (and
        (and true (= v_0 true_0) (= v_1 false_0))
      )
      (diseqBool_0 v_0 v_1)
    )
  )
)
(assert
  (forall ( (A Nat_0) (B Nat_0) (v_2 Nat_0) ) 
    (=>
      (and
        (and (= A (succ_0 B)) (= v_2 zero_0))
      )
      (diseqNat_0 v_2 A)
    )
  )
)
(assert
  (forall ( (A Nat_0) (B Nat_0) (v_2 Nat_0) ) 
    (=>
      (and
        (and (= A (succ_0 B)) (= v_2 zero_0))
      )
      (diseqNat_0 A v_2)
    )
  )
)
(assert
  (forall ( (A Nat_0) (B Nat_0) (C Nat_0) (D Nat_0) ) 
    (=>
      (and
        (diseqNat_0 C D)
        (and (= B (succ_0 C)) (= A (succ_0 D)))
      )
      (diseqNat_0 B A)
    )
  )
)
(assert
  (forall ( (A Nat_0) (B Nat_0) (C Nat_0) (D Nat_0) (E Nat_0) ) 
    (=>
      (and
        (minus_0 C E D)
        (and (= A (succ_0 D)) (= B (succ_0 E)))
      )
      (minus_0 C B A)
    )
  )
)
(assert
  (forall ( (A Nat_0) (B Nat_0) (v_2 Nat_0) (v_3 Nat_0) ) 
    (=>
      (and
        (and (= A (succ_0 B)) (= v_2 zero_0) (= v_3 zero_0))
      )
      (minus_0 v_2 A v_3)
    )
  )
)
(assert
  (forall ( (A Nat_0) (v_1 Nat_0) (v_2 Nat_0) ) 
    (=>
      (and
        (and true (= v_1 zero_0) (= v_2 zero_0))
      )
      (minus_0 v_1 v_2 A)
    )
  )
)
(assert
  (forall ( (A Nat_0) (B Nat_0) (C Bool_0) (D Nat_0) (E Nat_0) ) 
    (=>
      (and
        (lt_0 C D E)
        (and (= A (succ_0 E)) (= B (succ_0 D)))
      )
      (lt_0 C B A)
    )
  )
)
(assert
  (forall ( (A Nat_0) (B Nat_0) (v_2 Bool_0) (v_3 Nat_0) ) 
    (=>
      (and
        (and (= A (succ_0 B)) (= v_2 true_0) (= v_3 zero_0))
      )
      (lt_0 v_2 v_3 A)
    )
  )
)
(assert
  (forall ( (A Nat_0) (v_1 Bool_0) (v_2 Nat_0) ) 
    (=>
      (and
        (and true (= v_1 false_0) (= v_2 zero_0))
      )
      (lt_0 v_1 A v_2)
    )
  )
)
(assert
  (forall ( (A Nat_0) (B Nat_0) (C Nat_0) (D Nat_0) (v_4 Bool_0) (v_5 Nat_0) ) 
    (=>
      (and
        (lt_0 v_4 C A)
        (and (= v_4 true_0) (= B (succ_0 D)) (= A (succ_0 D)) (= v_5 C))
      )
      (mod_0 C v_5 B)
    )
  )
)
(assert
  (forall ( (A Nat_0) (B Nat_0) (C Nat_0) (D Nat_0) (E Nat_0) (F Nat_0) (G Bool_0) (H Nat_0) (I Nat_0) (v_9 Bool_0) ) 
    (=>
      (and
        (lt_0 G I C)
        (diseqBool_0 G v_9)
        (minus_0 F I B)
        (mod_0 E F A)
        (and (= v_9 true_0)
     (= B (succ_0 H))
     (= C (succ_0 H))
     (= D (succ_0 H))
     (= A (succ_0 H)))
      )
      (mod_0 E I D)
    )
  )
)
(assert
  (forall ( (A Nat_0) (v_1 Nat_0) (v_2 Nat_0) ) 
    (=>
      (and
        (and true (= v_1 zero_0) (= v_2 zero_0))
      )
      (mod_0 v_1 A v_2)
    )
  )
)
(assert
  (forall ( (A Nat_0) (B Nat_0) (C Nat_0) (D Nat_0) (E Nat_0) (F Nat_0) (G Nat_0) (H Nat_0) ) 
    (=>
      (and
        (go_0 E G F A)
        (and (= B (succ_0 H)) (= C (succ_0 F)) (= D (succ_0 G)) (= A (succ_0 H)))
      )
      (go_0 E D C B)
    )
  )
)
(assert
  (forall ( (A Nat_0) (B Nat_0) (C Nat_0) (D Nat_0) (E Nat_0) (F Nat_0) (v_6 Nat_0) ) 
    (=>
      (and
        (go_0 D E F A)
        (and (= C (succ_0 E)) (= B (succ_0 F)) (= A (succ_0 F)) (= v_6 zero_0))
      )
      (go_0 D C v_6 B)
    )
  )
)
(assert
  (forall ( (A Nat_0) (B Nat_0) (C Nat_0) (D Nat_0) (E Nat_0) (F Nat_0) (G Nat_0) (v_7 Nat_0) ) 
    (=>
      (and
        (minus_0 E B A)
        (and (= B (succ_0 G))
     (= D (succ_0 F))
     (= C (succ_0 G))
     (= A (succ_0 F))
     (= v_7 zero_0))
      )
      (go_0 E v_7 D C)
    )
  )
)
(assert
  (forall ( (A Nat_0) (B Nat_0) (v_2 Nat_0) (v_3 Nat_0) (v_4 Nat_0) ) 
    (=>
      (and
        (and (= A (succ_0 B)) (= v_2 zero_0) (= v_3 zero_0) (= v_4 zero_0))
      )
      (go_0 v_2 v_3 v_4 A)
    )
  )
)
(assert
  (forall ( (A Nat_0) (B Nat_0) (v_2 Nat_0) (v_3 Nat_0) ) 
    (=>
      (and
        (and true (= v_2 zero_0) (= v_3 zero_0))
      )
      (go_0 v_2 A B v_3)
    )
  )
)
(assert
  (forall ( (A Nat_0) (B Nat_0) (C Nat_0) (v_3 Nat_0) ) 
    (=>
      (and
        (go_0 A B v_3 C)
        (= v_3 zero_0)
      )
      (modstructural_0 A B C)
    )
  )
)
(assert
  (forall ( (A Nat_0) (B Nat_0) (C Nat_0) (D Nat_0) ) 
    (=>
      (and
        (diseqNat_0 A B)
        (modstructural_0 B C D)
        (mod_0 A C D)
        true
      )
      false
    )
  )
)

(check-sat)
(exit)
